c 
c U(n,d) graph
c graph gen seed     : 912334
c number of vertices : 70
c max number of edges: 2415
c Euclidean distance : 0.200000
c data structure     : sparse
c
c           Graph Stats
c number of vertices  : 70
c nonisolated vertices: 70
c number of edges     : 285
c edge density        : 0.118012
c max degree          : 16
c avg degree          : 8.14
c min degree          : 2
p col 70 285
e 1 65
e 1 53
e 1 43
e 1 37
e 1 29
e 1 27
e 1 16
e 1 15
e 1 8
e 2 69
e 2 67
e 2 63
e 2 51
e 2 39
e 2 20
e 2 18
e 2 13
e 2 7
e 3 68
e 3 66
e 3 61
e 3 59
e 3 54
e 3 53
e 3 27
e 3 23
e 3 19
e 3 15
e 3 7
e 3 6
e 4 32
e 4 11
e 5 57
e 5 49
e 5 47
e 5 44
e 5 38
e 5 36
e 5 35
e 5 31
e 5 22
e 5 10
e 6 54
e 6 53
e 6 27
e 6 23
e 6 20
e 6 19
e 6 15
e 6 13
e 6 7
e 7 63
e 7 54
e 7 51
e 7 20
e 7 19
e 7 18
e 7 15
e 7 13
e 8 68
e 8 65
e 8 43
e 8 37
e 8 29
e 8 26
e 8 16
e 9 58
e 9 26
e 10 57
e 10 56
e 10 49
e 10 47
e 10 44
e 10 38
e 10 35
e 10 31
e 10 22
e 11 32
e 12 60
e 12 24
e 12 17
e 12 14
e 13 63
e 13 39
e 13 20
e 13 19
e 13 18
e 14 62
e 14 60
e 14 34
e 14 24
e 14 17
e 15 68
e 15 65
e 15 54
e 15 53
e 15 51
e 15 37
e 15 29
e 15 27
e 15 23
e 15 20
e 15 19
e 15 16
e 16 65
e 16 62
e 16 37
e 16 29
e 16 27
e 17 60
e 17 24
e 18 63
e 18 39
e 18 20
e 19 68
e 19 54
e 19 53
e 19 27
e 19 23
e 19 20
e 20 63
e 20 54
e 20 51
e 20 39
e 20 27
e 21 69
e 21 67
e 21 63
e 21 62
e 21 60
e 21 51
e 21 39
e 21 24
e 22 64
e 22 57
e 22 49
e 22 47
e 22 44
e 22 38
e 22 36
e 22 35
e 22 33
e 22 31
e 23 68
e 23 66
e 23 61
e 23 59
e 23 54
e 23 53
e 23 43
e 23 37
e 23 29
e 23 27
e 24 65
e 24 62
e 24 60
e 24 51
e 25 70
e 25 66
e 25 61
e 25 59
e 25 52
e 25 41
e 25 28
e 26 34
e 26 30
e 27 68
e 27 65
e 27 54
e 27 53
e 27 51
e 27 37
e 27 29
e 28 70
e 28 56
e 28 52
e 29 65
e 29 62
e 29 54
e 29 53
e 29 51
e 29 37
e 30 34
e 31 57
e 31 49
e 31 47
e 31 44
e 31 38
e 31 35
e 33 57
e 33 55
e 33 50
e 33 45
e 33 43
e 33 42
e 33 40
e 33 36
e 33 35
e 35 57
e 35 55
e 35 50
e 35 49
e 35 47
e 35 44
e 35 38
e 35 36
e 36 57
e 36 55
e 36 50
e 36 44
e 36 43
e 36 40
e 37 68
e 37 65
e 37 54
e 37 53
e 37 43
e 38 64
e 38 57
e 38 49
e 38 47
e 38 44
e 39 69
e 39 67
e 39 63
e 39 51
e 40 58
e 40 57
e 40 55
e 40 45
e 40 42
e 41 52
e 41 48
e 41 46
e 42 58
e 42 45
e 43 68
e 43 55
e 43 53
e 43 50
e 44 64
e 44 57
e 44 49
e 44 47
e 45 58
e 45 57
e 46 48
e 47 64
e 47 57
e 47 49
e 49 56
e 50 66
e 50 61
e 50 59
e 50 56
e 50 55
e 51 69
e 51 67
e 51 63
e 51 62
e 51 54
e 52 70
e 53 68
e 53 66
e 53 61
e 53 59
e 53 54
e 54 68
e 54 65
e 55 68
e 55 66
e 55 59
e 56 59
e 57 64
e 59 68
e 59 66
e 59 61
e 60 62
e 61 68
e 61 66
e 62 65
e 63 69
e 63 67
e 66 68
e 67 69
